NAME: custom35
TYPE: TSP
COMMENT: 
DIMENSION: 35
NODE_COORD_SECTION
1 1173 385
2 1165 350
3 1146 424
4 1108 440
5 1079 441
6 1040 444
7 932 436
8 907 426
9 845 404
10 810 390
11 775 363
12 758 343
13 743 318
14 744 276
15 774 242
16 830 231
17 890 229
18 996 226
19 1080 256
20 1138 300
21 987 443
22 944.3583542039355 558.0446511627918
23 888.9634347048299 611.1314490161005
24 723.9327370304114 731.1537745974965
25 645.4566010733453 433.40608228980443
26 767.7870483005365 446.1007513416828
27 286.54368515205726 404.55456171735364
28 313.08708407871205 404.55456171735364
29 306.1627191413236 552.2743470483019
30 390.40915921288 530.3471914132379
31 26.88 319.15406082289815
32 306.1627191413236 743.8484436493749
33 723.9327370304114 963.12
34 989.3667262969589 867.3329516994635
35 1317.1200000000001 420.7114132379262
EOF